NAME: germany16
TYPE: TSP
COMMENT: Landeshauptstaedte in Deutschland (Luftlinie)
DIMENSION: 16
EDGE_WEIGHT_TYPE: GEO
EDGE_WEIGHT_FORMAT: FUNCTION 
DISPLAY_DATA_TYPE: COORD_DISPLAY
NODE_COORD_SECTION
   1  54.325278  10.140556
   2  53.633333  11.416667
   3  53.550556  9.993333
   4  53.075878  8.807311
   5  52.518611  13.408056
   6  52.395833  13.061389
   7  52.374444  9.738611
   8  52.133333  11.616667
   9  51.225556  6.782778
  10  51.049259  13.73836
  11  50.978056  11.029167
  12  50.082054  8.241377
  13  50.000000  8.271111
  14  49.233333  7       
  15  48.775556  9.182778
  16  48.136944  11.575278
EOF



